p edges 695 990
n 1 1e+20
n 2 2e+20
n 3 2e+20
n 4 1e+20
n 5 1e+20
n 6 1e+20
n 7 2e+20
n 8 2e+20
n 9 1e+20
n 10 1e+20
n 11 1e+20
n 12 2e+20
n 13 2e+20
n 14 1e+20
n 15 1e+20
n 16 1e+20
n 17 2e+20
n 18 2e+20
n 19 1e+20
n 20 1e+20
n 21 1e+20
n 22 2e+20
n 23 2e+20
n 24 1e+20
n 25 1e+20
n 26 1e+20
n 27 2e+20
n 28 2e+20
n 29 1e+20
n 30 1e+20
n 31 1e+20
n 32 9.32677
n 33 2e+20
n 34 1e+20
n 35 1e+20
n 36 1e+20
n 37 2e+20
n 38 2e+20
n 39 1e+20
n 40 1e+20
n 41 1e+20
n 42 2e+20
n 43 2e+20
n 44 1e+20
n 45 1e+20
n 46 1e+20
n 47 2e+20
n 48 2e+20
n 49 1e+20
n 50 1e+20
n 51 1e+20
n 52 2e+20
n 53 1e+20
n 54 1e+20
n 55 1e+20
n 56 2e+20
n 57 2e+20
n 58 1e+20
n 59 1e+20
n 60 1e+20
n 61 2e+20
n 62 2e+20
n 63 1e+20
n 64 1e+20
n 65 1e+20
n 66 2e+20
n 67 1e+20
n 68 1e+20
n 69 1e+20
n 70 2e+20
n 71 2e+20
n 72 1e+20
n 73 1e+20
n 74 1e+20
n 75 2e+20
n 76 2e+20
n 77 1e+20
n 78 1e+20
n 79 1e+20
n 80 2e+20
n 81 2e+20
n 82 1e+20
n 83 1e+20
n 84 1e+20
n 85 2e+20
n 86 1e+20
n 87 1e+20
n 88 1e+20
n 89 2e+20
n 90 2e+20
n 91 1e+20
n 92 1e+20
n 93 1e+20
n 94 2e+20
n 95 2e+20
n 96 1e+20
n 97 1e+20
n 98 1e+20
n 99 2e+20
n 100 2e+20
n 101 1e+20
n 102 1e+20
n 103 2e+20
n 104 1e+20
n 105 2e+20
n 106 1e+20
n 107 1e+20
n 108 1e+20
n 109 1e+20
n 110 1e+20
n 111 2e+20
n 112 2e+20
n 113 1e+20
n 114 1e+20
n 115 1e+20
n 116 2e+20
n 117 1e+20
n 118 1e+20
n 119 1e+20
n 120 2e+20
n 121 2e+20
n 122 1e+20
n 123 1e+20
n 124 1e+20
n 125 2e+20
n 126 1e+20
n 127 1e+20
n 128 1e+20
n 129 2e+20
n 130 1e+20
n 131 1e+20
n 132 1e+20
n 133 2e+20
n 134 2e+20
n 135 1e+20
n 136 1e+20
n 137 1e+20
n 138 2e+20
n 139 2e+20
n 140 1e+20
n 141 1e+20
n 142 1e+20
n 143 2e+20
n 144 1e+20
n 145 1e+20
n 146 2e+20
n 147 2e+20
n 148 1e+20
n 149 1e+20
n 150 2e+20
n 151 2e+20
n 152 1e+20
n 153 1e+20
n 154 2e+20
n 155 9.20984
n 156 1e+20
n 157 1e+20
n 158 2e+20
n 159 2e+20
n 160 1e+20
n 161 1e+20
n 162 1e+20
n 163 2e+20
n 164 2e+20
n 165 1e+20
n 166 1e+20
n 167 3e+20
n 168 2e+20
n 169 2e+20
n 170 2e+20
n 171 2e+20
n 172 2e+20
n 173 1e+20
n 174 1e+20
n 175 1e+20
n 176 1e+20
n 177 1e+20
n 178 2e+20
n 179 1e+20
n 180 1e+20
n 181 1e+20
n 182 2e+20
n 183 1e+20
n 184 1e+20
n 185 1e+20
n 186 2e+20
n 187 2e+20
n 188 1e+20
n 189 1e+20
n 190 1e+20
n 191 2e+20
n 192 1e+20
n 193 1e+20
n 194 2e+20
n 195 2e+20
n 196 1e+20
n 197 1e+20
n 198 2e+20
n 199 1e+20
n 200 1e+20
n 201 1e+20
n 202 2e+20
n 203 1e+20
n 204 1e+20
n 205 1e+20
n 206 2e+20
n 207 1e+20
n 208 1e+20
n 209 1e+20
n 210 2e+20
n 211 1e+20
n 212 1e+20
n 213 1e+20
n 214 2e+20
n 215 2e+20
n 216 1e+20
n 217 1e+20
n 218 1e+20
n 219 2e+20
n 220 1e+20
n 221 1e+20
n 222 1e+20
n 223 1e+20
n 224 1e+20
n 225 1e+20
n 226 2e+20
n 227 1e+20
n 228 1e+20
n 229 1e+20
n 230 2e+20
n 231 2e+20
n 232 1e+20
n 233 1e+20
n 234 1e+20
n 235 2e+20
n 236 2e+20
n 237 1e+20
n 238 1e+20
n 239 1e+20
n 240 1e+20
n 241 1e+20
n 242 1e+20
n 243 2e+20
n 244 1e+20
n 245 1e+20
n 246 1e+20
n 247 1e+20
n 248 1e+20
n 249 1e+20
n 250 2e+20
n 251 1e+20
n 252 1e+20
n 253 1e+20
n 254 2e+20
n 255 1e+20
n 256 1e+20
n 257 1e+20
n 258 2e+20
n 259 1e+20
n 260 1e+20
n 261 1e+20
n 262 2e+20
n 263 1e+20
n 264 1e+20
n 265 1e+20
n 266 2e+20
n 267 1e+20
n 268 1e+20
n 269 1e+20
n 270 1e+20
n 271 1e+20
n 272 1e+20
n 273 2e+20
n 274 1e+20
n 275 1e+20
n 276 1e+20
n 277 2e+20
n 278 1e+20
n 279 1e+20
n 280 1e+20
n 281 2e+20
n 282 1e+20
n 283 1e+20
n 284 1e+20
n 285 2e+20
n 286 1e+20
n 287 1e+20
n 288 1e+20
n 289 1e+20
n 290 1e+20
n 291 1e+20
n 292 1e+20
n 293 1e+20
n 294 1e+20
n 295 2e+20
n 296 1e+20
n 297 1e+20
n 298 1e+20
n 299 2e+20
n 300 2e+20
n 301 1e+20
n 302 1e+20
n 303 1e+20
n 304 2e+20
n 305 1e+20
n 306 1e+20
n 307 1e+20
n 308 2e+20
n 309 1e+20
n 310 1e+20
n 311 1e+20
n 312 2e+20
n 313 1e+20
n 314 1e+20
n 315 2e+20
n 316 2e+20
n 317 1e+20
n 318 1e+20
n 319 2e+20
n 320 1e+20
n 321 1e+20
n 322 1e+20
n 323 10.7893
n 324 1e+20
n 325 1e+20
n 326 1e+20
n 327 2e+20
n 328 1e+20
n 329 1e+20
n 330 1e+20
n 331 1e+20
n 332 1e+20
n 333 1e+20
n 334 1e+20
n 335 1e+20
n 336 2e+20
n 337 1e+20
n 338 1e+20
n 339 1e+20
n 340 1e+20
n 341 1e+20
n 342 1e+20
n 343 1e+20
n 344 1e+20
n 345 1e+20
n 346 1e+20
n 347 1e+20
n 348 1e+20
n 349 1e+20
n 350 1e+20
n 351 1e+20
n 352 1e+20
n 353 1e+20
n 354 1e+20
n 355 1e+20
n 356 1e+20
n 357 1e+20
n 358 2e+20
n 359 1e+20
n 360 1e+20
n 361 1e+20
n 362 1e+20
n 363 1e+20
n 364 1e+20
n 365 2e+20
n 366 1e+20
n 367 1e+20
n 368 1e+20
n 369 1e+20
n 370 1e+20
n 371 1e+20
n 372 1e+20
n 373 1e+20
n 374 1e+20
n 375 1e+20
n 376 1e+20
n 377 1e+20
n 378 1e+20
n 379 1e+20
n 380 1e+20
n 381 1e+20
n 382 1e+20
n 383 1e+20
n 384 1e+20
n 385 1e+20
n 386 2e+20
n 387 1e+20
n 388 1e+20
n 389 1e+20
n 390 1e+20
n 391 1e+20
n 392 1e+20
n 393 1e+20
n 394 1e+20
n 395 1e+20
n 396 1e+20
n 397 1e+20
n 398 1.20397
n 399 1e+20
n 400 0.693147
n 401 1e+20
n 402 0.693147
n 403 1e+20
n 404 0.916291
n 405 1e+20
n 406 0.105361
n 407 1e+20
n 408 0.693147
n 409 1e+20
n 410 1e+20
n 411 2.30259
n 412 1e+20
n 413 0.693147
n 414 1e+20
n 415 0.105361
n 416 1e+20
n 417 0.105361
n 418 1e+20
n 419 0.693147
n 420 1e+20
n 421 0.693147
n 422 1e+20
n 423 2.40795
n 424 1e+20
n 425 1.60944
n 426 1e+20
n 427 2.30259
n 428 1e+20
n 429 0.105361
n 430 1e+20
n 431 0.693147
n 432 1e+20
n 433 0.116534
n 434 1e+20
n 435 0.105361
n 436 1e+20
n 437 2.40795
n 438 1e+20
n 439 0.693147
n 440 1e+20
n 441 1e+20
n 442 0.693147
n 443 1e+20
n 444 0.693147
n 445 1e+20
n 446 0.105361
n 447 3.4761
n 448 1e+20
n 449 1e+20
n 450 2.30259
n 451 1e+20
n 452 0.693147
n 453 1e+20
n 454 0.116534
n 455 1e+20
n 456 0.693147
n 457 1e+20
n 458 0.116534
n 459 1e+20
n 460 0.693147
n 461 1e+20
n 462 0.105361
n 463 1e+20
n 464 1e+20
n 465 0.105361
n 466 1e+20
n 467 0.693147
n 468 2e+20
n 469 1e+20
n 470 1e+20
n 471 0.693147
n 472 1e+20
n 473 0.105361
n 474 1e+20
n 475 0.693147
n 476 1e+20
n 477 0.693147
n 478 1e+20
n 479 0.105361
n 480 1e+20
n 481 0.693147
n 482 1e+20
n 483 0.916291
n 484 1e+20
n 485 0.693147
n 486 1e+20
n 487 1.20397
n 488 1e+20
n 489 0.356675
n 490 1e+20
n 491 1.20397
n 492 3.4761
n 493 1e+20
n 494 1e+20
n 495 2.99573
n 496 1e+20
n 497 0.105361
n 498 1e+20
n 499 0.693147
n 500 1e+20
n 501 0.693147
n 502 1e+20
n 503 0.287682
n 504 1e+20
n 505 0.105361
n 506 1e+20
n 507 0.693147
n 508 1e+20
n 509 0.105361
n 510 1e+20
n 511 2.99573
n 512 1e+20
n 513 0.116534
n 514 1e+20
n 515 0.693147
n 516 1e+20
n 517 0.693147
n 518 1e+20
n 519 0.693147
n 520 1e+20
n 521 0.916291
n 522 1e+20
n 523 0.693147
n 524 1e+20
n 525 1.20397
n 526 1e+20
n 527 0.693147
n 528 1e+20
n 529 4.60517
n 530 3.4761
n 531 1e+20
n 532 1e+20
n 533 0.693147
n 534 3.4761
n 535 1e+20
n 536 1e+20
n 537 0.105361
n 538 1e+20
n 539 0.693147
n 540 1e+20
n 541 2.30259
n 542 1e+20
n 543 1.20397
n 544 1e+20
n 545 0.693147
n 546 1e+20
n 547 0.116534
n 548 1e+20
n 549 1.20397
n 550 1e+20
n 551 0.693147
n 552 1e+20
n 553 0.693147
n 554 1e+20
n 555 1e+20
n 556 0.510826
n 557 1e+20
n 558 0.105361
n 559 1e+20
n 560 0.693147
n 561 1e+20
n 562 0.693147
n 563 1e+20
n 564 0.693147
n 565 1e+20
n 566 0.105361
n 567 1e+20
n 568 0.105361
n 569 1e+20
n 570 1.20397
n 571 1e+20
n 572 0.693147
n 573 1e+20
n 574 0.693147
n 575 1e+20
n 576 1.20397
n 577 1e+20
n 578 1.60944
n 579 1e+20
n 580 2.30259
n 581 1e+20
n 582 1.20397
n 583 1e+20
n 584 0.116534
n 585 1e+20
n 586 2.99573
n 587 1e+20
n 588 0.693147
n 589 1e+20
n 590 2.99573
n 591 1e+20
n 592 0.356675
n 593 1e+20
n 594 1.60944
n 595 1e+20
n 596 0.105361
n 597 1e+20
n 598 0.105361
n 599 1e+20
n 600 1.20397
n 601 1e+20
n 602 1e+20
n 603 1e+20
n 604 1e+20
n 605 1e+20
n 606 1e+20
n 607 1e+20
n 608 1e+20
n 609 1e+20
n 610 1e+20
n 611 1e+20
n 612 1e+20
n 613 1e+20
n 614 1e+20
n 615 1e+20
n 616 1e+20
n 617 1e+20
n 618 1e+20
n 619 1e+20
n 620 1e+20
n 621 1e+20
n 622 1e+20
n 623 1e+20
n 624 1e+20
n 625 1e+20
n 626 1e+20
n 627 1e+20
n 628 1e+20
n 629 1e+20
n 630 1e+20
n 631 1e+20
n 632 1e+20
n 633 1e+20
n 634 1e+20
n 635 1e+20
n 636 1e+20
n 637 1e+20
n 638 1e+20
n 639 1e+20
n 640 1e+20
n 641 1e+20
n 642 1e+20
n 643 1e+20
n 644 1e+20
n 645 1e+20
n 646 1e+20
n 647 1e+20
n 648 1e+20
n 649 1e+20
n 650 1e+20
n 651 1e+20
n 652 1e+20
n 653 1e+20
n 654 1e+20
n 655 1e+20
n 656 1e+20
n 657 1e+20
n 658 1e+20
n 659 1e+20
n 660 1e+20
n 661 1e+20
n 662 1e+20
n 663 1e+20
n 664 1e+20
n 665 1e+20
n 666 1e+20
n 667 1e+20
n 668 1e+20
n 669 1e+20
n 670 1e+20
n 671 1e+20
n 672 1e+20
n 673 1e+20
n 674 1e+20
n 675 1e+20
n 676 1e+20
n 677 1e+20
n 678 1e+20
n 679 1e+20
n 680 1e+20
n 681 1e+20
n 682 1e+20
n 683 1e+20
n 684 1e+20
n 685 1e+20
n 686 1e+20
n 687 1e+20
n 688 1e+20
n 689 1e+20
n 690 1e+20
n 691 1e+20
n 692 1e+20
n 693 1e+20
n 694 1e+20
n 695 1e+20
e 4 5
e 5 1
e 4 2
e 4 3
e 9 10
e 10 6
e 9 7
e 9 8
e 14 15
e 15 11
e 14 12
e 14 13
e 19 20
e 20 16
e 19 17
e 19 18
e 24 25
e 25 21
e 24 22
e 24 23
e 29 30
e 30 26
e 29 27
e 29 28
e 34 35
e 35 31
e 34 32
e 34 33
e 39 40
e 40 36
e 39 37
e 39 38
e 44 45
e 45 41
e 44 42
e 44 43
e 49 50
e 50 46
e 49 47
e 49 48
e 53 54
e 54 51
e 53 52
e 53 47
e 58 59
e 59 55
e 58 56
e 58 57
e 63 64
e 64 60
e 63 61
e 63 62
e 67 68
e 68 65
e 67 66
e 67 37
e 72 73
e 73 69
e 72 70
e 72 71
e 77 78
e 78 74
e 77 75
e 77 76
e 82 83
e 83 79
e 82 80
e 82 81
e 86 87
e 87 84
e 86 38
e 86 85
e 91 92
e 92 88
e 91 89
e 91 90
e 96 97
e 97 93
e 96 94
e 96 95
e 101 102
e 102 98
e 101 99
e 101 100
e 106 107
e 107 103
e 106 104
e 106 105
e 108 109
e 109 103
e 108 62
e 108 7
e 113 114
e 114 110
e 113 111
e 113 112
e 117 118
e 118 115
e 117 23
e 117 116
e 122 123
e 123 119
e 122 120
e 122 121
e 126 127
e 127 124
e 126 125
e 126 56
e 130 131
e 131 128
e 130 129
e 130 12
e 135 136
e 136 132
e 135 133
e 135 134
e 140 141
e 141 137
e 140 138
e 140 139
e 144 145
e 145 142
e 144 8
e 144 143
e 148 149
e 149 146
e 148 139
e 148 147
e 152 153
e 153 146
e 152 150
e 152 151
e 156 157
e 157 154
e 156 155
e 156 112
e 160 161
e 161 154
e 160 158
e 160 159
e 165 166
e 166 162
e 165 163
e 165 164
e 169 170
e 170 167
e 169 76
e 169 168
e 173 174
e 174 171
e 173 172
e 173 111
e 175 176
e 176 171
e 175 48
e 175 158
e 179 180
e 180 177
e 179 178
e 179 163
e 183 184
e 184 181
e 183 182
e 183 66
e 188 189
e 189 185
e 188 186
e 188 187
e 192 193
e 193 190
e 192 191
e 192 42
e 196 197
e 197 194
e 196 195
e 196 191
e 199 200
e 200 194
e 199 198
e 199 105
e 203 204
e 204 201
e 203 202
e 203 52
e 207 208
e 208 205
e 207 206
e 207 75
e 211 212
e 212 209
e 211 81
e 211 210
e 216 217
e 217 213
e 216 214
e 216 215
e 220 221
e 221 218
e 220 219
e 220 61
e 223 224
e 224 222
e 223 71
e 223 27
e 227 228
e 228 225
e 227 226
e 227 150
e 232 233
e 233 229
e 232 230
e 232 231
e 237 238
e 238 234
e 237 235
e 237 236
e 240 241
e 241 239
e 240 100
e 240 133
e 244 245
e 245 242
e 244 243
e 244 17
e 247 248
e 248 246
e 247 57
e 247 172
e 251 252
e 252 249
e 251 250
e 251 235
e 255 256
e 256 253
e 255 254
e 255 138
e 259 260
e 260 257
e 259 28
e 259 258
e 263 264
e 264 261
e 263 262
e 263 120
e 267 268
e 268 265
e 267 95
e 267 266
e 270 271
e 271 269
e 270 258
e 270 206
e 274 275
e 275 272
e 274 116
e 274 273
e 278 279
e 279 276
e 278 277
e 278 70
e 282 283
e 283 280
e 282 85
e 282 281
e 286 287
e 287 284
e 286 168
e 286 285
e 289 290
e 290 288
e 289 231
e 289 243
e 292 293
e 293 291
e 292 281
e 292 125
e 296 297
e 297 294
e 296 236
e 296 295
e 301 302
e 302 298
e 301 299
e 301 300
e 305 306
e 306 303
e 305 304
e 305 219
e 309 310
e 310 307
e 309 308
e 309 195
e 313 314
e 314 311
e 313 312
e 313 22
e 317 318
e 318 315
e 317 316
e 317 214
e 320 321
e 321 315
e 320 273
e 320 319
e 324 325
e 325 322
e 324 323
e 324 210
e 328 329
e 329 326
e 328 13
e 328 327
e 331 332
e 332 330
e 331 300
e 331 226
e 333 334
e 334 104
e 333 143
e 333 308
e 337 338
e 338 335
e 337 336
e 337 316
e 340 341
e 341 339
e 340 164
e 340 182
e 343 344
e 344 342
e 343 18
e 343 186
e 346 347
e 347 345
e 346 90
e 346 129
e 349 350
e 350 348
e 349 266
e 349 99
e 352 353
e 353 351
e 352 159
e 352 299
e 355 356
e 356 354
e 355 295
e 355 2
e 359 360
e 360 357
e 359 319
e 359 358
e 362 363
e 363 361
e 362 327
e 362 304
e 366 367
e 367 364
e 366 365
e 366 254
e 369 370
e 370 368
e 369 151
e 369 230
e 372 373
e 373 371
e 372 285
e 372 89
e 375 376
e 376 374
e 375 43
e 375 33
e 378 379
e 379 377
e 378 121
e 378 312
e 381 382
e 382 380
e 381 147
e 381 336
e 384 385
e 385 383
e 384 187
e 384 262
e 387 388
e 388 386
e 387 215
e 387 178
e 389 390
e 390 386
e 389 3
e 389 202
e 392 393
e 393 391
e 392 134
e 392 250
e 395 396
e 396 394
e 395 358
e 395 80
e 1 397
e 2 397
e 1 398
e 3 398
e 6 399
e 7 399
e 6 400
e 8 400
e 11 401
e 12 401
e 11 402
e 13 402
e 16 403
e 17 403
e 16 404
e 18 404
e 21 405
e 22 405
e 21 406
e 23 406
e 26 407
e 27 407
e 26 408
e 28 408
e 31 409
e 33 409
e 36 410
e 37 410
e 36 411
e 38 411
e 41 412
e 42 412
e 41 413
e 43 413
e 46 414
e 47 414
e 46 415
e 48 415
e 51 416
e 52 416
e 51 417
e 47 417
e 55 418
e 56 418
e 55 419
e 57 419
e 60 420
e 61 420
e 60 421
e 62 421
e 65 422
e 66 422
e 65 423
e 37 423
e 69 424
e 70 424
e 69 425
e 71 425
e 74 426
e 75 426
e 74 427
e 76 427
e 79 428
e 80 428
e 79 429
e 81 429
e 84 430
e 38 430
e 84 431
e 85 431
e 88 432
e 89 432
e 88 433
e 90 433
e 93 434
e 94 434
e 93 435
e 95 435
e 98 436
e 99 436
e 98 437
e 100 437
e 103 438
e 62 438
e 103 439
e 7 439
e 103 440
e 105 440
e 110 441
e 111 441
e 110 442
e 112 442
e 115 443
e 23 443
e 115 444
e 116 444
e 119 445
e 120 445
e 119 446
e 121 446
e 447 448
e 94 448
e 124 449
e 125 449
e 124 450
e 56 450
e 128 451
e 129 451
e 128 452
e 12 452
e 132 453
e 133 453
e 132 454
e 134 454
e 137 455
e 138 455
e 137 456
e 139 456
e 142 457
e 8 457
e 142 458
e 143 458
e 146 459
e 139 459
e 146 460
e 147 460
e 146 461
e 150 461
e 146 462
e 151 462
e 154 463
e 112 463
e 154 464
e 158 464
e 154 465
e 159 465
e 162 466
e 163 466
e 162 467
e 164 467
e 167 468
e 76 468
e 167 469
e 168 469
e 171 470
e 172 470
e 171 471
e 111 471
e 171 472
e 48 472
e 171 473
e 158 473
e 177 474
e 178 474
e 177 475
e 163 475
e 181 476
e 182 476
e 181 477
e 66 477
e 185 478
e 186 478
e 185 479
e 187 479
e 190 480
e 191 480
e 190 481
e 42 481
e 194 482
e 195 482
e 194 483
e 191 483
e 194 484
e 198 484
e 194 485
e 105 485
e 201 486
e 202 486
e 201 487
e 52 487
e 205 488
e 206 488
e 205 489
e 75 489
e 209 490
e 81 490
e 209 491
e 210 491
e 492 493
e 365 493
e 213 494
e 214 494
e 213 495
e 215 495
e 218 496
e 219 496
e 218 497
e 61 497
e 222 498
e 71 498
e 222 499
e 27 499
e 225 500
e 226 500
e 225 501
e 150 501
e 229 502
e 230 502
e 229 503
e 231 503
e 234 504
e 235 504
e 234 505
e 236 505
e 239 506
e 100 506
e 239 507
e 133 507
e 242 508
e 243 508
e 242 509
e 17 509
e 246 510
e 57 510
e 246 511
e 172 511
e 249 512
e 250 512
e 249 513
e 235 513
e 253 514
e 254 514
e 253 515
e 138 515
e 257 516
e 28 516
e 257 517
e 258 517
e 261 518
e 262 518
e 261 519
e 120 519
e 265 520
e 95 520
e 265 521
e 266 521
e 269 522
e 258 522
e 269 523
e 206 523
e 272 524
e 116 524
e 272 525
e 273 525
e 276 526
e 277 526
e 276 527
e 70 527
e 280 528
e 85 528
e 280 529
e 281 529
e 530 531
e 198 531
e 284 532
e 168 532
e 284 533
e 285 533
e 534 535
e 277 535
e 288 536
e 231 536
e 288 537
e 243 537
e 291 538
e 281 538
e 291 539
e 125 539
e 294 540
e 236 540
e 294 541
e 295 541
e 298 542
e 299 542
e 298 543
e 300 543
e 303 544
e 304 544
e 303 545
e 219 545
e 307 546
e 308 546
e 307 547
e 195 547
e 311 548
e 312 548
e 311 549
e 22 549
e 315 550
e 316 550
e 315 551
e 214 551
e 315 552
e 273 552
e 315 553
e 319 553
e 322 554
e 210 554
e 326 555
e 13 555
e 326 556
e 327 556
e 330 557
e 300 557
e 330 558
e 226 558
e 104 559
e 143 559
e 104 560
e 308 560
e 335 561
e 336 561
e 335 562
e 316 562
e 339 563
e 164 563
e 339 564
e 182 564
e 342 565
e 18 565
e 342 566
e 186 566
e 345 567
e 90 567
e 345 568
e 129 568
e 348 569
e 266 569
e 348 570
e 99 570
e 351 571
e 159 571
e 351 572
e 299 572
e 354 573
e 295 573
e 354 574
e 2 574
e 357 575
e 319 575
e 357 576
e 358 576
e 361 577
e 327 577
e 361 578
e 304 578
e 364 579
e 365 579
e 364 580
e 254 580
e 368 581
e 151 581
e 368 582
e 230 582
e 371 583
e 285 583
e 371 584
e 89 584
e 374 585
e 43 585
e 374 586
e 33 586
e 377 587
e 121 587
e 377 588
e 312 588
e 380 589
e 147 589
e 380 590
e 336 590
e 383 591
e 187 591
e 383 592
e 262 592
e 386 593
e 215 593
e 386 594
e 178 594
e 386 595
e 3 595
e 386 596
e 202 596
e 391 597
e 134 597
e 391 598
e 250 598
e 394 599
e 358 599
e 394 600
e 80 600
e 365 601
e 254 601
e 254 602
e 138 602
e 138 603
e 139 603
e 139 604
e 147 604
e 147 605
e 336 605
e 336 606
e 316 606
e 316 607
e 214 607
e 214 608
e 215 608
e 215 609
e 178 609
e 178 610
e 163 610
e 163 611
e 164 611
e 164 612
e 182 612
e 182 613
e 66 613
e 66 614
e 37 614
e 37 615
e 38 615
e 38 616
e 85 616
e 85 617
e 281 617
e 281 618
e 125 618
e 125 619
e 56 619
e 56 620
e 57 620
e 57 621
e 172 621
e 172 622
e 111 622
e 111 623
e 112 623
e 277 624
e 70 624
e 70 625
e 71 625
e 71 626
e 27 626
e 27 627
e 28 627
e 28 628
e 258 628
e 258 629
e 206 629
e 206 630
e 75 630
e 75 631
e 76 631
e 168 632
e 285 632
e 285 633
e 89 633
e 89 634
e 90 634
e 90 635
e 129 635
e 129 636
e 12 636
e 12 637
e 13 637
e 13 638
e 327 638
e 327 639
e 304 639
e 304 640
e 219 640
e 219 641
e 61 641
e 61 642
e 62 642
e 62 643
e 7 643
e 7 644
e 8 644
e 8 645
e 143 645
e 143 646
e 308 646
e 308 647
e 195 647
e 195 648
e 191 648
e 191 649
e 42 649
e 42 650
e 43 650
e 43 651
e 33 651
e 94 652
e 95 652
e 95 653
e 266 653
e 266 654
e 99 654
e 99 655
e 100 655
e 100 656
e 133 656
e 133 657
e 134 657
e 134 658
e 250 658
e 250 659
e 235 659
e 235 660
e 236 660
e 236 661
e 295 661
e 295 662
e 2 662
e 2 663
e 3 663
e 3 664
e 202 664
e 202 665
e 52 665
e 52 666
e 47 666
e 47 667
e 48 667
e 48 668
e 158 668
e 158 669
e 159 669
e 159 670
e 299 670
e 299 671
e 300 671
e 300 672
e 226 672
e 226 673
e 150 673
e 150 674
e 151 674
e 151 675
e 230 675
e 230 676
e 231 676
e 231 677
e 243 677
e 243 678
e 17 678
e 17 679
e 18 679
e 18 680
e 186 680
e 186 681
e 187 681
e 187 682
e 262 682
e 262 683
e 120 683
e 120 684
e 121 684
e 121 685
e 312 685
e 312 686
e 22 686
e 22 687
e 23 687
e 23 688
e 116 688
e 116 689
e 273 689
e 273 690
e 319 690
e 319 691
e 358 691
e 358 692
e 80 692
e 80 693
e 81 693
e 81 694
e 210 694
e 198 695
e 105 695
